tsp_instances/TSP50/instance52.tsp
NODE_COORD_SECTION
0 78 128
1 154 125
2 198 90
3 140 166
4 172 94
5 30 41
6 156 163
7 198 3
8 69 100
9 168 168
10 157 165
11 175 149
12 37 86
13 64 22
14 81 33
15 73 150
16 111 155
17 29 15
18 116 73
19 159 169
20 163 119
21 134 49
22 120 191
23 89 53
24 142 51
25 44 116
26 6 134
27 191 84
28 10 35
29 136 118
30 27 112
31 62 151
32 5 68
33 116 152
34 95 84
35 118 170
36 90 22
37 192 31
38 77 30
39 96 98
40 18 102
41 155 151
42 76 122
43 62 173
44 0 105
45 38 134
46 199 140
47 111 104
48 130 21
49 163 148
