tsp_instances/TSP50/instance52.opt.tour
TOUR_SECTION
1
16
32
44
17
34
36
23
4
7
11
20
10
42
50
12
47
3
28
5
21
2
30
48
40
35
19
22
25
38
8
49
37
24
15
39
14
18
6
29
33
13
31
41
45
27
46
26
9
43
-1